(set-info :smt-lib-version 2.6)
(set-logic QF_UFNIA)
(set-info :source |
Generated by: Geoff Sutcliffe
Generated on: 2026-03-11
Generator: TPTPWorld
Application: Benchmarking automated theorem provers
Time limit: 120.0

These benchmarks are translations from the TPTP Library (Thousands of
Problems for Theorem Provers), see http://www.cs.miami.edu/~tptp/

The TPTP is maintained by Geoff Sutcliffe, and he contributed this
selection of benchmarks to SMT-LIB.  They were exported from the
v9.2.1 realease of TPTP.
|)
(set-info :category "industrial")
(set-info :status "unknown")
; SZS status Success
(declare-sort $$unsorted 0)
(declare-fun tptp.a () Int)
(declare-fun tptp.c () Int)
(declare-fun tptp.d () Int)
(declare-fun tptp.b () Int)
(assert (= (+ tptp.a (* (- 1) (* (+ tptp.c tptp.d) (+ tptp.d tptp.c)))) 0))
(assert (let ((_let_1 (- tptp.c tptp.d))) (= (* _let_1 _let_1) tptp.b)))
(assert (not (= (+ (+ tptp.a tptp.b) (* (- 1) (* 2 (+ (* tptp.c tptp.c) (* tptp.d tptp.d))))) 0)))
(check-sat)
(exit)
